language ESSENCE' 1.0

letting network_ExplicitWithRepetitionR5_Flag be 4
letting network_ExplicitWithRepetitionR5_Values_ExplicitVarSizeWithMarker_Marker be [0, 0, 4, 4; int(1..4)]
letting network_ExplicitWithRepetitionR5_Values_ExplicitVarSizeWithMarker_Values be
        [[1, 1, 1, 1; int(1..4)], [1, 1, 1, 1; int(1..4)], [1, 2, 4, 5; int(1..4)], [1, 3, 6, 7; int(1..4)]; int(1..4)]
$ Visualisation for network_ExplicitWithRepetitionR5_Values_ExplicitVarSizeWithMarker_Values
$ 1 1 1 1
$ 1 1 1 1
$ 1 2 4 5
$ 1 3 6 7

